Calculando min-max:
[[0, 0, 1, 1, 1, 1, 1, 1, 1, 1], [0, 1, 1, 1, 1, 1, 1, 1, 1, 1], [0, 1, 1, 1, 1, 1, 1, 1, 1, 1], [0, 1, 1, 1, 1, 1, 1, 1, 1, 0], [0, 1, 1, 1, 1, 1, 1, 1, 0, 0], [0, 1, 1, 1, 1, 1, 1, 1, 0, 0], [0, 1, 1, 1, 1, 1, 1, 1, 0, 0], [0, 1, 1, 1, 1, 1, 1, 1, 0, 0], [0, 0, 1, 1, 1, 1, 1, 1, 0, 0], [0, 0, 0, 1, 1, 1, 1, 1, 0, 0]]
Criando instancia min-C...
Instancia criada.
Resolvendo instancia...

Welcome to IBM(R) ILOG(R) CPLEX(R) Interactive Optimizer 22.1.1.0
  with Simplex, Mixed Integer & Barrier Optimizers
5725-A06 5725-A29 5724-Y48 5724-Y49 5724-Y54 5724-Y55 5655-Y21
Copyright IBM Corp. 1988, 2022.  All Rights Reserved.

Type 'help' for a list of available commands.
Type 'help' followed by a command name for more
information on commands.

CPLEX> Logfile 'cplex.log' closed.
Logfile 'C:\Users\LUCASP~1\AppData\Local\Temp\tmpqx0s_8wc.cplex.log' open.
CPLEX> Problem 'C:\Users\LUCASP~1\AppData\Local\Temp\tmpq9kcg0nf.pyomo.lp' read.
Read time = 0.00 sec. (0.77 ticks)
CPLEX> Problem name         : C:\Users\LUCASP~1\AppData\Local\Temp\tmpq9kcg0nf.pyomo.lp
Objective sense      : Minimize
Variables            :    5231  [Binary: 5220,  General Integer: 11]
Objective nonzeros   :     100
Linear constraints   :    8244  [Less: 4583,  Greater: 1,  Equal: 3660]
  Nonzeros           :   20785
  RHS nonzeros       :    1592

Variables            : Min LB: 0.000000         Max UB: 1.000000       
Objective nonzeros   : Min   : 1.000000         Max   : 1.000000       
Linear constraints   :
  Nonzeros           : Min   : 1.000000         Max   : 100000.0       
  RHS nonzeros       : Min   : 1.000000         Max   : 10.00000       
CPLEX> Version identifier: 22.1.1.0 | 2022-11-27 | 9160aff4d
Tried aggregator 3 times.
MIP Presolve eliminated 5148 rows and 3618 columns.
MIP Presolve added 40 rows and 0 columns.
MIP Presolve modified 442 coefficients.
Aggregator did 600 substitutions.
Reduced MIP has 2536 rows, 1013 columns, and 7086 nonzeros.
Reduced MIP has 1003 binaries, 10 generals, 0 SOSs, and 0 indicators.
Presolve time = 0.03 sec. (29.46 ticks)
Found incumbent of value 5.000000 after 0.05 sec. (41.66 ticks)
Probing time = 0.02 sec. (3.66 ticks)
Tried aggregator 1 time.
Detecting symmetries...
MIP Presolve eliminated 20 rows and 0 columns.
Reduced MIP has 2516 rows, 1013 columns, and 7026 nonzeros.
Reduced MIP has 1003 binaries, 10 generals, 0 SOSs, and 0 indicators.
Presolve time = 0.02 sec. (12.03 ticks)
Probing time = 0.00 sec. (3.54 ticks)
Clique table members: 4499.
MIP emphasis: balance optimality and feasibility.
MIP search method: dynamic search.
Parallel mode: deterministic, using up to 8 threads.
Root relaxation solution time = 0.00 sec. (5.43 ticks)

        Nodes                                         Cuts/
   Node  Left     Objective  IInf  Best Integer    Best Bound    ItCnt     Gap

*     0+    0                            5.0000        0.0000           100.00%
      0     0        1.1000    14        5.0000        1.1000      132   78.00%
      0     0        2.3333     9        5.0000     Cuts: 131      190   53.33%
      0     0        3.2333    20        5.0000     Cuts: 119      227   35.33%
      0     0        cutoff              5.0000                    227    0.00%
Elapsed time = 0.17 sec. (104.78 ticks, tree = 0.01 MB, solutions = 1)

GUB cover cuts applied:  2
Clique cuts applied:  15
Cover cuts applied:  6
Implied bound cuts applied:  176
Zero-half cuts applied:  5
Lift and project cuts applied:  2
Gomory fractional cuts applied:  6

Root node processing (before b&c):
  Real time             =    0.17 sec. (104.96 ticks)
Parallel b&c, 8 threads:
  Real time             =    0.00 sec. (0.00 ticks)
  Sync time (average)   =    0.00 sec.
  Wait time (average)   =    0.00 sec.
                          ------------
Total (root+branch&cut) =    0.17 sec. (104.96 ticks)

Solution pool: 1 solution saved.

MIP - Integer optimal solution:  Objective =  5.0000000000e+00
Solution time =    0.19 sec.  Iterations = 227  Nodes = 0
Deterministic time = 104.97 ticks  (561.35 ticks/sec)

CPLEX> Incumbent solution written to file 'C:\Users\LUCASP~1\AppData\Local\Temp\tmprr7029ye.cplex.sol'.
CPLEX> Maximos: {'E': 7.6198, 'C': 73}
Minimos: {'E': 0.611782, 'C': 5.0}
Resolvendo instancia...

Welcome to IBM(R) ILOG(R) CPLEX(R) Interactive Optimizer 22.1.1.0
  with Simplex, Mixed Integer & Barrier Optimizers
5725-A06 5725-A29 5724-Y48 5724-Y49 5724-Y54 5724-Y55 5655-Y21
Copyright IBM Corp. 1988, 2022.  All Rights Reserved.

Type 'help' for a list of available commands.
Type 'help' followed by a command name for more
information on commands.

CPLEX> Logfile 'cplex.log' closed.
Logfile 'C:\Users\LUCASP~1\AppData\Local\Temp\tmp_gjzfh5v.cplex.log' open.
CPLEX> Problem 'C:\Users\LUCASP~1\AppData\Local\Temp\tmpzphz7lm6.pyomo.lp' read.
Read time = 0.02 sec. (0.77 ticks)
CPLEX> Problem name         : C:\Users\LUCASP~1\AppData\Local\Temp\tmpzphz7lm6.pyomo.lp
Objective sense      : Minimize
Variables            :    5232  [Fix: 1,  Binary: 5220,  General Integer: 11]
Objective nonzeros   :     131
Linear constraints   :    8244  [Less: 4583,  Greater: 1,  Equal: 3660]
  Nonzeros           :   20785
  RHS nonzeros       :    1592

Variables            : Min LB: 0.000000         Max UB: 1.000000       
Objective nonzeros   : Min   : 0.006884012      Max   : 0.05436487     
Linear constraints   :
  Nonzeros           : Min   : 1.000000         Max   : 100000.0       
  RHS nonzeros       : Min   : 1.000000         Max   : 10.00000       
CPLEX> Version identifier: 22.1.1.0 | 2022-11-27 | 9160aff4d
Tried aggregator 3 times.
MIP Presolve eliminated 5132 rows and 3619 columns.
MIP Presolve modified 444 coefficients.
Aggregator did 600 substitutions.
Reduced MIP has 2512 rows, 1009 columns, and 7014 nonzeros.
Reduced MIP has 999 binaries, 10 generals, 0 SOSs, and 0 indicators.
Presolve time = 0.05 sec. (29.66 ticks)
Found incumbent of value 0.000000 after 0.06 sec. (42.27 ticks)
Probing time = 0.02 sec. (3.67 ticks)
Tried aggregator 1 time.
Detecting symmetries...
MIP Presolve eliminated 11 rows and 0 columns.
Reduced MIP has 2501 rows, 998 columns, and 6981 nonzeros.
Reduced MIP has 988 binaries, 10 generals, 0 SOSs, and 0 indicators.
Presolve time = 0.02 sec. (9.70 ticks)
Probing time = 0.00 sec. (3.59 ticks)
Clique table members: 4469.
MIP emphasis: balance optimality and feasibility.
MIP search method: dynamic search.
Parallel mode: deterministic, using up to 8 threads.
Root relaxation solution time = 0.02 sec. (11.29 ticks)

        Nodes                                         Cuts/
   Node  Left     Objective  IInf  Best Integer    Best Bound    ItCnt     Gap

*     0+    0                            0.0000       -0.5436              --- 
      0     0       -0.2885    73        0.0000       -0.2885      325     --- 
*     0+    0                           -0.0530       -0.2885           444.41%
      0     0       -0.2867    72       -0.0530      Cuts: 65      424  440.93%
      0     0       -0.2822   128       -0.0530     Cuts: 137      628  432.52%
      0     0       -0.2820   162       -0.0530      Cuts: 74      673  432.07%
      0     0       -0.2810   132       -0.0530      Cuts: 76      779  430.12%
*     0+    0                           -0.2079       -0.2810            35.17%
      0     0       -0.2805   148       -0.2079      Cuts: 46      857   34.96%
      0     0       -0.2797   115       -0.2079      Cuts: 41      970   34.58%
      0     0       -0.2792    65       -0.2079      Cuts: 56     1029   34.33%
      0     0       -0.2774    73       -0.2079      Cuts: 50     1146   33.46%
      0     0       -0.2773   107       -0.2079      Cuts: 64     1223   33.39%
*     0+    0                           -0.2292       -0.2773            20.95%
      0     0       -0.2770    87       -0.2292      Cuts: 65     1351   19.33%
      0     0       -0.2768   112       -0.2292      Cuts: 71     1423   19.33%
      0     0       -0.2767    89       -0.2292      Cuts: 85     1462   19.33%
      0     0       -0.2765   202       -0.2292      Cuts: 25     1529   19.33%
*     0+    0                           -0.2301       -0.2736            18.88%
      0     2       -0.2765   202       -0.2301       -0.2689     1529   16.85%
Elapsed time = 1.14 sec. (461.43 ticks, tree = 0.02 MB, solutions = 5)
    717   355       -0.2466    85       -0.2301       -0.2689    24361   16.85%
*  1398   620      integral     0       -0.2326       -0.2655    39449   14.15%
   2079   761        cutoff             -0.2326       -0.2611    53762   12.27%
   3370  1033       -0.2339    22       -0.2326       -0.2535    77795    9.01%
   4824   820        cutoff             -0.2326       -0.2454   101941    5.51%

Cover cuts applied:  42
Implied bound cuts applied:  544
Mixed integer rounding cuts applied:  14
Zero-half cuts applied:  49
Gomory fractional cuts applied:  1

Root node processing (before b&c):
  Real time             =    1.14 sec. (460.55 ticks)
Parallel b&c, 8 threads:
  Real time             =    2.95 sec. (1102.81 ticks)
  Sync time (average)   =    0.88 sec.
  Wait time (average)   =    0.00 sec.
                          ------------
Total (root+branch&cut) =    4.09 sec. (1563.36 ticks)

Solution pool: 6 solutions saved.

MIP - Integer optimal solution:  Objective = -2.3257318386e-01
Solution time =    4.09 sec.  Iterations = 116981  Nodes = 6090
Deterministic time = 1563.38 ticks  (381.96 ticks/sec)

CPLEX> Incumbent solution written to file 'C:\Users\LUCASP~1\AppData\Local\Temp\tmplr3sl8xo.cplex.sol'.
CPLEX> 
Resultados:

E: 0.3877948087462105 -- 3.3294550000000003 mA
C: 0.8529411764705882 -- 63.0 points
WEIGHTED: -0.23257318386218886
Total Solving time: 4.204292058944702 s
Total elapsed time since execution: 17.452183485031128
